Route #1: 68 78 45
Route #2: 95 18 81
Route #3: 28 53 39
Route #4: 91 56 5
Route #5: 40 11 19
Route #6: 76 94 34
Route #7: 31 86 12 80
Route #8: 82 52 84
Route #9: 72 63 100 99 90
Route #10: 54 74 32
Route #11: 62 24 51
Route #12: 36 47 25 96 33
Route #13: 98 92 20
Route #14: 27 48 49 4
Route #15: 21 42 23 16
Route #16: 2 71 10
Route #17: 97 60 61 41
Route #18: 35 65 88 37 30 44 46 3 8
Route #19: 58 73 38 7 50 66
Route #20: 87 55 69
Route #21: 89 83 29 64
Route #22: 77 17 70 75
Route #23: 15 43 79 26
Route #24: 67 85 93 14
Route #25: 59 13 6
Route #26: 22 101 57 9
